Sat 19 May 19:29:30 CEST 2018
CPXPARAM_TimeLimit                               45
CPXPARAM_Threads                                 1
CPXPARAM_MIP_Strategy_CallbackReducedLP          0
Tried aggregator 3 times.
MIP Presolve eliminated 108 rows and 110 columns.
Aggregator did 72 substitutions.
Reduced MIP has 112 rows, 111 columns, and 256 nonzeros.
Reduced MIP has 108 binaries, 3 generals, 0 SOSs, and 18 indicators.
Presolve time = 0.00 sec. (0.50 ticks)
Found incumbent of value 2.000000 after 0.00 sec. (1.02 ticks)
Probing time = 0.00 sec. (0.30 ticks)
Cover probing fixed 0 vars, tightened 3 bounds.
Tried aggregator 3 times.
MIP Presolve modified 36 coefficients.
Aggregator did 54 substitutions.
Reduced MIP has 76 rows, 57 columns, and 184 nonzeros.
Reduced MIP has 54 binaries, 3 generals, 0 SOSs, and 0 indicators.
Presolve time = 0.00 sec. (0.32 ticks)
Probing time = 0.00 sec. (0.12 ticks)
Tried aggregator 2 times.
Aggregator did 18 substitutions.
Reduced MIP has 58 rows, 39 columns, and 148 nonzeros.
Reduced MIP has 36 binaries, 3 generals, 0 SOSs, and 0 indicators.
Presolve time = 0.00 sec. (0.18 ticks)
Probing time = 0.00 sec. (0.06 ticks)
Tried aggregator 1 time.
Reduced MIP has 58 rows, 39 columns, and 148 nonzeros.
Reduced MIP has 36 binaries, 3 generals, 0 SOSs, and 0 indicators.
Presolve time = 0.00 sec. (0.13 ticks)
Probing time = 0.00 sec. (0.06 ticks)
Clique table members: 20.
MIP emphasis: balance optimality and feasibility.
MIP search method: dynamic search.
Parallel mode: none, using 1 thread.
Root relaxation solution time = 0.00 sec. (0.07 ticks)

        Nodes                                         Cuts/
   Node  Left     Objective  IInf  Best Integer    Best Bound    ItCnt     Gap

*     0+    0                            2.0000        1.0000            50.00%
*     0     0      integral     0        1.0000        1.0000       19    0.00%
Elapsed time = 0.01 sec. (2.51 ticks, tree = 0.00 MB, solutions = 2)

Root node processing (before b&c):
  Real time             =    0.01 sec. (2.52 ticks)
Sequential b&c:
  Real time             =    0.00 sec. (0.00 ticks)
                          ------------
Total (root+branch&cut) =    0.01 sec. (2.52 ticks)
  | W
L | 0 1 2 3 4 5 6 7 8 
----------------------
0 | 1 2 . . . . . . . 
1 | . . . . . . . . . 

Boxes' corners:      (w,l)
    Box 1 is at 
        top left     (0,0)
        bottom right (0,0)

    Box 2 is at 
        top left     (1,0)
        bottom right (1,0)

    Roll length used: 1
In 0 seconds
